model_10_4_2_1_2.lp
\ instance_10_4_2_1.txt | model_10_4_2_1_2.lp
 
Minimize 
 	obj: y_0 + y_1 + y_2 + y_3 + y_4 + y_5 + y_6 + y_7 + y_8 + y_9 
Subject To
	c_obj_0: x_0_0 + x_1_0 + x_2_0 + x_3_0 + x_4_0 + x_5_0 + x_6_0 + x_7_0 + x_8_0 + x_9_0 = 5
	c_obj_1: x_0_1 + x_1_1 + x_2_1 + x_3_1 + x_4_1 + x_5_1 + x_6_1 + x_7_1 + x_8_1 + x_9_1 = 3
	c_obj_2: x_0_2 + x_1_2 + x_2_2 + x_3_2 + x_4_2 + x_5_2 + x_6_2 + x_7_2 + x_8_2 + x_9_2 = 1
	c_obj_3: x_0_3 + x_1_3 + x_2_3 + x_3_3 + x_4_3 + x_5_3 + x_6_3 + x_7_3 + x_8_3 + x_9_3 = 1
	c_limit_0: 29 x_0_0 + 15 x_0_1 + 5 x_0_2 + 58 x_0_3 - 100 y_0 <= 0 
	c_limit_1: 29 x_1_0 + 15 x_1_1 + 5 x_1_2 + 58 x_1_3 - 100 y_1 <= 0 
	c_limit_2: 29 x_2_0 + 15 x_2_1 + 5 x_2_2 + 58 x_2_3 - 100 y_2 <= 0 
	c_limit_3: 29 x_3_0 + 15 x_3_1 + 5 x_3_2 + 58 x_3_3 - 100 y_3 <= 0 
	c_limit_4: 29 x_4_0 + 15 x_4_1 + 5 x_4_2 + 58 x_4_3 - 100 y_4 <= 0 
	c_limit_5: 29 x_5_0 + 15 x_5_1 + 5 x_5_2 + 58 x_5_3 - 100 y_5 <= 0 
	c_limit_6: 29 x_6_0 + 15 x_6_1 + 5 x_6_2 + 58 x_6_3 - 100 y_6 <= 0 
	c_limit_7: 29 x_7_0 + 15 x_7_1 + 5 x_7_2 + 58 x_7_3 - 100 y_7 <= 0 
	c_limit_8: 29 x_8_0 + 15 x_8_1 + 5 x_8_2 + 58 x_8_3 - 100 y_8 <= 0 
	c_limit_9: 29 x_9_0 + 15 x_9_1 + 5 x_9_2 + 58 x_9_3 - 100 y_9 <= 0  
	c_bigM_0: x_0_0 - 5 z_0_0 <= 0 
	c_bigM_1: x_1_0 - 5 z_1_0 <= 0 
	c_bigM_2: x_2_0 - 5 z_2_0 <= 0 
	c_bigM_3: x_3_0 - 5 z_3_0 <= 0 
	c_bigM_4: x_4_0 - 5 z_4_0 <= 0 
	c_bigM_5: x_5_0 - 5 z_5_0 <= 0 
	c_bigM_6: x_6_0 - 5 z_6_0 <= 0 
	c_bigM_7: x_7_0 - 5 z_7_0 <= 0 
	c_bigM_8: x_8_0 - 5 z_8_0 <= 0 
	c_bigM_9: x_9_0 - 5 z_9_0 <= 0 
	c_bigM_10: x_0_1 - 5 z_0_1 <= 0 
	c_bigM_11: x_1_1 - 5 z_1_1 <= 0 
	c_bigM_12: x_2_1 - 5 z_2_1 <= 0 
	c_bigM_13: x_3_1 - 5 z_3_1 <= 0 
	c_bigM_14: x_4_1 - 5 z_4_1 <= 0 
	c_bigM_15: x_5_1 - 5 z_5_1 <= 0 
	c_bigM_16: x_6_1 - 5 z_6_1 <= 0 
	c_bigM_17: x_7_1 - 5 z_7_1 <= 0 
	c_bigM_18: x_8_1 - 5 z_8_1 <= 0 
	c_bigM_19: x_9_1 - 5 z_9_1 <= 0 
	c_bigM_20: x_0_2 - 5 z_0_2 <= 0 
	c_bigM_21: x_1_2 - 5 z_1_2 <= 0 
	c_bigM_22: x_2_2 - 5 z_2_2 <= 0 
	c_bigM_23: x_3_2 - 5 z_3_2 <= 0 
	c_bigM_24: x_4_2 - 5 z_4_2 <= 0 
	c_bigM_25: x_5_2 - 5 z_5_2 <= 0 
	c_bigM_26: x_6_2 - 5 z_6_2 <= 0 
	c_bigM_27: x_7_2 - 5 z_7_2 <= 0 
	c_bigM_28: x_8_2 - 5 z_8_2 <= 0 
	c_bigM_29: x_9_2 - 5 z_9_2 <= 0 
	c_bigM_30: x_0_3 - 5 z_0_3 <= 0 
	c_bigM_31: x_1_3 - 5 z_1_3 <= 0 
	c_bigM_32: x_2_3 - 5 z_2_3 <= 0 
	c_bigM_33: x_3_3 - 5 z_3_3 <= 0 
	c_bigM_34: x_4_3 - 5 z_4_3 <= 0 
	c_bigM_35: x_5_3 - 5 z_5_3 <= 0 
	c_bigM_36: x_6_3 - 5 z_6_3 <= 0 
	c_bigM_37: x_7_3 - 5 z_7_3 <= 0 
	c_bigM_38: x_8_3 - 5 z_8_3 <= 0 
	c_bigM_39: x_9_3 - 5 z_9_3 <= 0 
	c_less_0: z_0_0 - x_0_0 <= 0 
	c_less_1: z_1_0 - x_1_0 <= 0 
	c_less_2: z_2_0 - x_2_0 <= 0 
	c_less_3: z_3_0 - x_3_0 <= 0 
	c_less_4: z_4_0 - x_4_0 <= 0 
	c_less_5: z_5_0 - x_5_0 <= 0 
	c_less_6: z_6_0 - x_6_0 <= 0 
	c_less_7: z_7_0 - x_7_0 <= 0 
	c_less_8: z_8_0 - x_8_0 <= 0 
	c_less_9: z_9_0 - x_9_0 <= 0 
	c_less_10: z_0_1 - x_0_1 <= 0 
	c_less_11: z_1_1 - x_1_1 <= 0 
	c_less_12: z_2_1 - x_2_1 <= 0 
	c_less_13: z_3_1 - x_3_1 <= 0 
	c_less_14: z_4_1 - x_4_1 <= 0 
	c_less_15: z_5_1 - x_5_1 <= 0 
	c_less_16: z_6_1 - x_6_1 <= 0 
	c_less_17: z_7_1 - x_7_1 <= 0 
	c_less_18: z_8_1 - x_8_1 <= 0 
	c_less_19: z_9_1 - x_9_1 <= 0 
	c_less_20: z_0_2 - x_0_2 <= 0 
	c_less_21: z_1_2 - x_1_2 <= 0 
	c_less_22: z_2_2 - x_2_2 <= 0 
	c_less_23: z_3_2 - x_3_2 <= 0 
	c_less_24: z_4_2 - x_4_2 <= 0 
	c_less_25: z_5_2 - x_5_2 <= 0 
	c_less_26: z_6_2 - x_6_2 <= 0 
	c_less_27: z_7_2 - x_7_2 <= 0 
	c_less_28: z_8_2 - x_8_2 <= 0 
	c_less_29: z_9_2 - x_9_2 <= 0 
	c_less_30: z_0_3 - x_0_3 <= 0 
	c_less_31: z_1_3 - x_1_3 <= 0 
	c_less_32: z_2_3 - x_2_3 <= 0 
	c_less_33: z_3_3 - x_3_3 <= 0 
	c_less_34: z_4_3 - x_4_3 <= 0 
	c_less_35: z_5_3 - x_5_3 <= 0 
	c_less_36: z_6_3 - x_6_3 <= 0 
	c_less_37: z_7_3 - x_7_3 <= 0 
	c_less_38: z_8_3 - x_8_3 <= 0 
	c_less_39: z_9_3 - x_9_3 <= 0 
	c_maxobjects_0: z_0_0 + z_1_0 + z_2_0 + z_3_0 + z_4_0 + z_5_0 + z_6_0 + z_7_0 + z_8_0 + z_9_0  <= 10
	c_maxobjects_1: z_0_1 + z_1_1 + z_2_1 + z_3_1 + z_4_1 + z_5_1 + z_6_1 + z_7_1 + z_8_1 + z_9_1  <= 10
	c_maxobjects_2: z_0_2 + z_1_2 + z_2_2 + z_3_2 + z_4_2 + z_5_2 + z_6_2 + z_7_2 + z_8_2 + z_9_2  <= 1
	c_maxobjects_3: z_0_3 + z_1_3 + z_2_3 + z_3_3 + z_4_3 + z_5_3 + z_6_3 + z_7_3 + z_8_3 + z_9_3  <= 10 
	c_incomp_0: z_0_0 + z_0_3  <= 1 
	c_incomp_1: z_1_0 + z_1_3  <= 1 
	c_incomp_2: z_2_0 + z_2_3  <= 1 
	c_incomp_3: z_3_0 + z_3_3  <= 1 
	c_incomp_4: z_4_0 + z_4_3  <= 1 
	c_incomp_5: z_5_0 + z_5_3  <= 1 
	c_incomp_6: z_6_0 + z_6_3  <= 1 
	c_incomp_7: z_7_0 + z_7_3  <= 1 
	c_incomp_8: z_8_0 + z_8_3  <= 1 
	c_incomp_9: z_9_0 + z_9_3  <= 1 
	c_incomp_10: z_0_1 + z_0_2  <= 1 
	c_incomp_11: z_1_1 + z_1_2  <= 1 
	c_incomp_12: z_2_1 + z_2_2  <= 1 
	c_incomp_13: z_3_1 + z_3_2  <= 1 
	c_incomp_14: z_4_1 + z_4_2  <= 1 
	c_incomp_15: z_5_1 + z_5_2  <= 1 
	c_incomp_16: z_6_1 + z_6_2  <= 1 
	c_incomp_17: z_7_1 + z_7_2  <= 1 
	c_incomp_18: z_8_1 + z_8_2  <= 1 
	c_incomp_19: z_9_1 + z_9_2  <= 1 
Bounds
	x_0_0 >= 0
	x_1_0 >= 0
	x_2_0 >= 0
	x_3_0 >= 0
	x_4_0 >= 0
	x_5_0 >= 0
	x_6_0 >= 0
	x_7_0 >= 0
	x_8_0 >= 0
	x_9_0 >= 0
	x_0_1 >= 0
	x_1_1 >= 0
	x_2_1 >= 0
	x_3_1 >= 0
	x_4_1 >= 0
	x_5_1 >= 0
	x_6_1 >= 0
	x_7_1 >= 0
	x_8_1 >= 0
	x_9_1 >= 0
	x_0_2 >= 0
	x_1_2 >= 0
	x_2_2 >= 0
	x_3_2 >= 0
	x_4_2 >= 0
	x_5_2 >= 0
	x_6_2 >= 0
	x_7_2 >= 0
	x_8_2 >= 0
	x_9_2 >= 0
	x_0_3 >= 0
	x_1_3 >= 0
	x_2_3 >= 0
	x_3_3 >= 0
	x_4_3 >= 0
	x_5_3 >= 0
	x_6_3 >= 0
	x_7_3 >= 0
	x_8_3 >= 0
	x_9_3 >= 0

Binary
	y_0
	y_1
	y_2
	y_3
	y_4
	y_5
	y_6
	y_7
	y_8
	y_9
	z_0_0
	z_1_0
	z_2_0
	z_3_0
	z_4_0
	z_5_0
	z_6_0
	z_7_0
	z_8_0
	z_9_0
	z_0_1
	z_1_1
	z_2_1
	z_3_1
	z_4_1
	z_5_1
	z_6_1
	z_7_1
	z_8_1
	z_9_1
	z_0_2
	z_1_2
	z_2_2
	z_3_2
	z_4_2
	z_5_2
	z_6_2
	z_7_2
	z_8_2
	z_9_2
	z_0_3
	z_1_3
	z_2_3
	z_3_3
	z_4_3
	z_5_3
	z_6_3
	z_7_3
	z_8_3
	z_9_3

Integer
	x_0_0
	x_1_0
	x_2_0
	x_3_0
	x_4_0
	x_5_0
	x_6_0
	x_7_0
	x_8_0
	x_9_0
	x_0_1
	x_1_1
	x_2_1
	x_3_1
	x_4_1
	x_5_1
	x_6_1
	x_7_1
	x_8_1
	x_9_1
	x_0_2
	x_1_2
	x_2_2
	x_3_2
	x_4_2
	x_5_2
	x_6_2
	x_7_2
	x_8_2
	x_9_2
	x_0_3
	x_1_3
	x_2_3
	x_3_3
	x_4_3
	x_5_3
	x_6_3
	x_7_3
	x_8_3
	x_9_3

End