model_10_4_2_1_2.sol
Problem:    
Rows:       118
Columns:    90 (90 integer, 50 binary)
Non-zeros:  330
Status:     INTEGER OPTIMAL
Objective:  obj = 3 (MINimum)

   No.   Row name        Activity     Lower bound   Upper bound
------ ------------    ------------- ------------- -------------
     1 c_obj_0                     5             5             = 
     2 c_obj_1                     3             3             = 
     3 c_obj_2                     1             1             = 
     4 c_obj_3                     1             1             = 
     5 c_limit_0                  -8                           0 
     6 c_limit_1                 -12                           0 
     7 c_limit_2                   0                           0 
     8 c_limit_3                   0                           0 
     9 c_limit_4                   0                           0 
    10 c_limit_5                   0                           0 
    11 c_limit_6                   0                           0 
    12 c_limit_7                   0                           0 
    13 c_limit_8                 -27                           0 
    14 c_limit_9                   0                           0 
    15 c_bigM_0                   -2                           0 
    16 c_bigM_1                   -3                           0 
    17 c_bigM_2                    0                           0 
    18 c_bigM_3                    0                           0 
    19 c_bigM_4                    0                           0 
    20 c_bigM_5                    0                           0 
    21 c_bigM_6                    0                           0 
    22 c_bigM_7                    0                           0 
    23 c_bigM_8                    0                           0 
    24 c_bigM_9                    0                           0 
    25 c_bigM_10                   0                           0 
    26 c_bigM_11                  -3                           0 
    27 c_bigM_12                   0                           0 
    28 c_bigM_13                   0                           0 
    29 c_bigM_14                   0                           0 
    30 c_bigM_15                   0                           0 
    31 c_bigM_16                   0                           0 
    32 c_bigM_17                   0                           0 
    33 c_bigM_18                  -4                           0 
    34 c_bigM_19                   0                           0 
    35 c_bigM_20                  -4                           0 
    36 c_bigM_21                   0                           0 
    37 c_bigM_22                   0                           0 
    38 c_bigM_23                   0                           0 
    39 c_bigM_24                   0                           0 
    40 c_bigM_25                   0                           0 
    41 c_bigM_26                   0                           0 
    42 c_bigM_27                   0                           0 
    43 c_bigM_28                   0                           0 
    44 c_bigM_29                   0                           0 
    45 c_bigM_30                   0                           0 
    46 c_bigM_31                   0                           0 
    47 c_bigM_32                   0                           0 
    48 c_bigM_33                   0                           0 
    49 c_bigM_34                   0                           0 
    50 c_bigM_35                   0                           0 
    51 c_bigM_36                   0                           0 
    52 c_bigM_37                   0                           0 
    53 c_bigM_38                  -4                           0 
    54 c_bigM_39                   0                           0 
    55 c_less_0                   -2                           0 
    56 c_less_1                   -1                           0 
    57 c_less_2                    0                           0 
    58 c_less_3                    0                           0 
    59 c_less_4                    0                           0 
    60 c_less_5                    0                           0 
    61 c_less_6                    0                           0 
    62 c_less_7                    0                           0 
    63 c_less_8                    0                           0 
    64 c_less_9                    0                           0 
    65 c_less_10                   0                           0 
    66 c_less_11                  -1                           0 
    67 c_less_12                   0                           0 
    68 c_less_13                   0                           0 
    69 c_less_14                   0                           0 
    70 c_less_15                   0                           0 
    71 c_less_16                   0                           0 
    72 c_less_17                   0                           0 
    73 c_less_18                   0                           0 
    74 c_less_19                   0                           0 
    75 c_less_20                   0                           0 
    76 c_less_21                   0                           0 
    77 c_less_22                   0                           0 
    78 c_less_23                   0                           0 
    79 c_less_24                   0                           0 
    80 c_less_25                   0                           0 
    81 c_less_26                   0                           0 
    82 c_less_27                   0                           0 
    83 c_less_28                   0                           0 
    84 c_less_29                   0                           0 
    85 c_less_30                   0                           0 
    86 c_less_31                   0                           0 
    87 c_less_32                   0                           0 
    88 c_less_33                   0                           0 
    89 c_less_34                   0                           0 
    90 c_less_35                   0                           0 
    91 c_less_36                   0                           0 
    92 c_less_37                   0                           0 
    93 c_less_38                   0                           0 
    94 c_less_39                   0                           0 
    95 c_maxobjects_0
                                   2                          10 
    96 c_maxobjects_1
                                   2                          10 
    97 c_maxobjects_2
                                   1                           1 
    98 c_maxobjects_3
                                   1                          10 
    99 c_incomp_0                  1                           1 
   100 c_incomp_1                  1                           1 
   101 c_incomp_2                  0                           1 
   102 c_incomp_3                  0                           1 
   103 c_incomp_4                  0                           1 
   104 c_incomp_5                  0                           1 
   105 c_incomp_6                  0                           1 
   106 c_incomp_7                  0                           1 
   107 c_incomp_8                  1                           1 
   108 c_incomp_9                  0                           1 
   109 c_incomp_10                 1                           1 
   110 c_incomp_11                 1                           1 
   111 c_incomp_12                 0                           1 
   112 c_incomp_13                 0                           1 
   113 c_incomp_14                 0                           1 
   114 c_incomp_15                 0                           1 
   115 c_incomp_16                 0                           1 
   116 c_incomp_17                 0                           1 
   117 c_incomp_18                 1                           1 
   118 c_incomp_19                 0                           1 

   No. Column name       Activity     Lower bound   Upper bound
------ ------------    ------------- ------------- -------------
     1 y_0          *              1             0             1 
     2 y_1          *              1             0             1 
     3 y_2          *              0             0             1 
     4 y_3          *              0             0             1 
     5 y_4          *              0             0             1 
     6 y_5          *              0             0             1 
     7 y_6          *              0             0             1 
     8 y_7          *              0             0             1 
     9 y_8          *              1             0             1 
    10 y_9          *              0             0             1 
    11 x_0_0        *              3             0               
    12 x_1_0        *              2             0               
    13 x_2_0        *              0             0               
    14 x_3_0        *              0             0               
    15 x_4_0        *              0             0               
    16 x_5_0        *              0             0               
    17 x_6_0        *              0             0               
    18 x_7_0        *              0             0               
    19 x_8_0        *              0             0               
    20 x_9_0        *              0             0               
    21 x_0_1        *              0             0               
    22 x_1_1        *              2             0               
    23 x_2_1        *              0             0               
    24 x_3_1        *              0             0               
    25 x_4_1        *              0             0               
    26 x_5_1        *              0             0               
    27 x_6_1        *              0             0               
    28 x_7_1        *              0             0               
    29 x_8_1        *              1             0               
    30 x_9_1        *              0             0               
    31 x_0_2        *              1             0               
    32 x_1_2        *              0             0               
    33 x_2_2        *              0             0               
    34 x_3_2        *              0             0               
    35 x_4_2        *              0             0               
    36 x_5_2        *              0             0               
    37 x_6_2        *              0             0               
    38 x_7_2        *              0             0               
    39 x_8_2        *              0             0               
    40 x_9_2        *              0             0               
    41 x_0_3        *              0             0               
    42 x_1_3        *              0             0               
    43 x_2_3        *              0             0               
    44 x_3_3        *              0             0               
    45 x_4_3        *              0             0               
    46 x_5_3        *              0             0               
    47 x_6_3        *              0             0               
    48 x_7_3        *              0             0               
    49 x_8_3        *              1             0               
    50 x_9_3        *              0             0               
    51 z_0_0        *              1             0             1 
    52 z_1_0        *              1             0             1 
    53 z_2_0        *              0             0             1 
    54 z_3_0        *              0             0             1 
    55 z_4_0        *              0             0             1 
    56 z_5_0        *              0             0             1 
    57 z_6_0        *              0             0             1 
    58 z_7_0        *              0             0             1 
    59 z_8_0        *              0             0             1 
    60 z_9_0        *              0             0             1 
    61 z_0_1        *              0             0             1 
    62 z_1_1        *              1             0             1 
    63 z_2_1        *              0             0             1 
    64 z_3_1        *              0             0             1 
    65 z_4_1        *              0             0             1 
    66 z_5_1        *              0             0             1 
    67 z_6_1        *              0             0             1 
    68 z_7_1        *              0             0             1 
    69 z_8_1        *              1             0             1 
    70 z_9_1        *              0             0             1 
    71 z_0_2        *              1             0             1 
    72 z_1_2        *              0             0             1 
    73 z_2_2        *              0             0             1 
    74 z_3_2        *              0             0             1 
    75 z_4_2        *              0             0             1 
    76 z_5_2        *              0             0             1 
    77 z_6_2        *              0             0             1 
    78 z_7_2        *              0             0             1 
    79 z_8_2        *              0             0             1 
    80 z_9_2        *              0             0             1 
    81 z_0_3        *              0             0             1 
    82 z_1_3        *              0             0             1 
    83 z_2_3        *              0             0             1 
    84 z_3_3        *              0             0             1 
    85 z_4_3        *              0             0             1 
    86 z_5_3        *              0             0             1 
    87 z_6_3        *              0             0             1 
    88 z_7_3        *              0             0             1 
    89 z_8_3        *              1             0             1 
    90 z_9_3        *              0             0             1 

Integer feasibility conditions:

KKT.PE: max.abs.err = 0.00e+00 on row 0
        max.rel.err = 0.00e+00 on row 0
        High quality

KKT.PB: max.abs.err = 0.00e+00 on row 0
        max.rel.err = 0.00e+00 on row 0
        High quality

End of output
